\ Model SlicePlacementEnergy_copy
\ LP format - for model browsing. Use MPS format to capture full model detail.
Minimize
 
Subject To
 assign_vnf2_0: v_vnf2_0_1 + v_vnf2_0_2 + v_vnf2_0_3 + v_vnf2_0_4
   + v_vnf2_0_5 + v_vnf2_0_6 + v_vnf2_0_7 + v_vnf2_0_8 + v_vnf2_0_9
   + v_vnf2_0_10 + v_vnf2_0_11 + v_vnf2_0_12 = 1
 assign_vnf7_0: v_vnf7_0_1 + v_vnf7_0_2 + v_vnf7_0_3 + v_vnf7_0_4
   + v_vnf7_0_5 + v_vnf7_0_6 + v_vnf7_0_7 + v_vnf7_0_8 + v_vnf7_0_9
   + v_vnf7_0_10 + v_vnf7_0_11 + v_vnf7_0_12 = 1
 assign_vnf14_0: v_vnf14_0_1 + v_vnf14_0_2 + v_vnf14_0_3 + v_vnf14_0_4
   + v_vnf14_0_5 + v_vnf14_0_6 + v_vnf14_0_7 + v_vnf14_0_8 + v_vnf14_0_9
   + v_vnf14_0_10 + v_vnf14_0_11 + v_vnf14_0_12 = 1
 assign_vnf14_1: v_vnf14_1_1 + v_vnf14_1_2 + v_vnf14_1_3 + v_vnf14_1_4
   + v_vnf14_1_5 + v_vnf14_1_6 + v_vnf14_1_7 + v_vnf14_1_8 + v_vnf14_1_9
   + v_vnf14_1_10 + v_vnf14_1_11 + v_vnf14_1_12 = 1
 antico_s0_n6: v_vnf0_0_6 + v_vnf0_1_6 + v_vnf0_2_6 <= 1
 antico_s1_n6: v_vnf1_0_6 + v_vnf1_1_6 + v_vnf1_2_6 <= 1
 antico_s2_n6: v_vnf2_0_6 + v_vnf2_1_6 + v_vnf2_2_6 <= 1
 antico_s3_n6: v_vnf3_0_6 + v_vnf3_1_6 + v_vnf3_2_6 <= 1
 antico_s4_n6: v_vnf4_0_6 + v_vnf4_1_6 + v_vnf4_2_6 <= 1
 antico_s5_n6: v_vnf5_0_6 + v_vnf5_1_6 + v_vnf5_2_6 <= 1
 antico_s6_n6: v_vnf6_0_6 + v_vnf6_1_6 + v_vnf6_2_6 <= 1
 antico_s7_n6: v_vnf7_0_6 + v_vnf7_1_6 + v_vnf7_2_6 <= 1
 antico_s7_n12: v_vnf7_0_12 + v_vnf7_1_12 + v_vnf7_2_12 <= 1
 antico_s9_n6: v_vnf9_0_6 + v_vnf9_1_6 + v_vnf9_2_6 <= 1
 antico_s10_n6: v_vnf10_0_6 + v_vnf10_1_6 + v_vnf10_2_6 <= 1
 antico_s12_n6: v_vnf12_0_6 + v_vnf12_1_6 + v_vnf12_2_6 <= 1
 antico_s14_n6: v_vnf14_0_6 + v_vnf14_1_6 + v_vnf14_2_6 <= 1
 antico_s14_n11: v_vnf14_0_11 + v_vnf14_1_11 + v_vnf14_2_11 <= 1
 flow_s0_vnf0_0_to_vnf0_1_n6: - v_vnf0_0_6 + v_vnf0_1_6
   - f_2_6_s0_vnf0_0_to_vnf0_1 - f_5_6_s0_vnf0_0_to_vnf0_1
   + f_6_7_s0_vnf0_0_to_vnf0_1 = 0
 flow_s1_vnf1_0_to_vnf1_1_n6: - v_vnf1_0_6 + v_vnf1_1_6
   - f_2_6_s1_vnf1_0_to_vnf1_1 - f_5_6_s1_vnf1_0_to_vnf1_1
   + f_6_7_s1_vnf1_0_to_vnf1_1 = 0
 flow_s2_vnf2_0_to_vnf2_1_n6: - v_vnf2_0_6 + v_vnf2_1_6
   - f_2_6_s2_vnf2_0_to_vnf2_1 - f_5_6_s2_vnf2_0_to_vnf2_1
   + f_6_7_s2_vnf2_0_to_vnf2_1 = 0
 flow_s3_vnf3_0_to_vnf3_1_n6: - v_vnf3_0_6 + v_vnf3_1_6
   - f_2_6_s3_vnf3_0_to_vnf3_1 - f_5_6_s3_vnf3_0_to_vnf3_1
   + f_6_7_s3_vnf3_0_to_vnf3_1 = 0
 flow_s4_vnf4_0_to_vnf4_1_n6: - v_vnf4_0_6 + v_vnf4_1_6
   - f_2_6_s4_vnf4_0_to_vnf4_1 - f_5_6_s4_vnf4_0_to_vnf4_1
   + f_6_7_s4_vnf4_0_to_vnf4_1 = 0
 flow_s5_vnf5_0_to_vnf5_1_n6: - v_vnf5_0_6 + v_vnf5_1_6
   - f_2_6_s5_vnf5_0_to_vnf5_1 - f_5_6_s5_vnf5_0_to_vnf5_1
   + f_6_7_s5_vnf5_0_to_vnf5_1 = 0
 flow_s6_vnf6_0_to_vnf6_1_n6: - v_vnf6_0_6 + v_vnf6_1_6
   - f_2_6_s6_vnf6_0_to_vnf6_1 - f_5_6_s6_vnf6_0_to_vnf6_1
   + f_6_7_s6_vnf6_0_to_vnf6_1 = 0
 flow_s7_vnf7_0_to_vnf7_1_n6: - v_vnf7_0_6 + v_vnf7_1_6
   - f_2_6_s7_vnf7_0_to_vnf7_1 - f_5_6_s7_vnf7_0_to_vnf7_1
   + f_6_7_s7_vnf7_0_to_vnf7_1 = 0
 flow_s7_vnf7_0_to_vnf7_1_n12: - v_vnf7_0_12 + v_vnf7_1_12
   - f_3_12_s7_vnf7_0_to_vnf7_1 - f_10_12_s7_vnf7_0_to_vnf7_1 = 0
 flow_s9_vnf9_0_to_vnf9_1_n6: - v_vnf9_0_6 + v_vnf9_1_6
   - f_2_6_s9_vnf9_0_to_vnf9_1 - f_5_6_s9_vnf9_0_to_vnf9_1
   + f_6_7_s9_vnf9_0_to_vnf9_1 = 0
 flow_s10_vnf10_0_to_vnf10_1_n6: - v_vnf10_0_6 + v_vnf10_1_6
   - f_2_6_s10_vnf10_0_to_vnf10_1 - f_5_6_s10_vnf10_0_to_vnf10_1
   + f_6_7_s10_vnf10_0_to_vnf10_1 = 0
 flow_s12_vnf12_0_to_vnf12_1_n6: - v_vnf12_0_6 + v_vnf12_1_6
   - f_2_6_s12_vnf12_0_to_vnf12_1 - f_5_6_s12_vnf12_0_to_vnf12_1
   + f_6_7_s12_vnf12_0_to_vnf12_1 = 0
 flow_s14_vnf14_0_to_vnf14_1_n1: - v_vnf14_0_1 + v_vnf14_1_1
   + f_1_2_s14_vnf14_0_to_vnf14_1 + f_1_3_s14_vnf14_0_to_vnf14_1 = 0
 flow_s14_vnf14_0_to_vnf14_1_n2: - v_vnf14_0_2 + v_vnf14_1_2
   - f_1_2_s14_vnf14_0_to_vnf14_1 + f_2_4_s14_vnf14_0_to_vnf14_1
   + f_2_6_s14_vnf14_0_to_vnf14_1 = 0
 flow_s14_vnf14_0_to_vnf14_1_n3: - v_vnf14_0_3 + v_vnf14_1_3
   - f_1_3_s14_vnf14_0_to_vnf14_1 + f_3_4_s14_vnf14_0_to_vnf14_1
   + f_3_11_s14_vnf14_0_to_vnf14_1 + f_3_12_s14_vnf14_0_to_vnf14_1 = 0
 flow_s14_vnf14_0_to_vnf14_1_n4: - v_vnf14_0_4 + v_vnf14_1_4
   - f_2_4_s14_vnf14_0_to_vnf14_1 - f_3_4_s14_vnf14_0_to_vnf14_1
   + f_4_5_s14_vnf14_0_to_vnf14_1 = 0
 flow_s14_vnf14_0_to_vnf14_1_n5: - v_vnf14_0_5 + v_vnf14_1_5
   - f_4_5_s14_vnf14_0_to_vnf14_1 + f_5_6_s14_vnf14_0_to_vnf14_1
   + f_5_8_s14_vnf14_0_to_vnf14_1 = 0
 flow_s14_vnf14_0_to_vnf14_1_n7: - v_vnf14_0_7 + v_vnf14_1_7
   - f_6_7_s14_vnf14_0_to_vnf14_1 + f_7_8_s14_vnf14_0_to_vnf14_1
   + f_7_9_s14_vnf14_0_to_vnf14_1 + f_7_10_s14_vnf14_0_to_vnf14_1 = 0
 flow_s14_vnf14_0_to_vnf14_1_n8: - v_vnf14_0_8 + v_vnf14_1_8
   - f_5_8_s14_vnf14_0_to_vnf14_1 - f_7_8_s14_vnf14_0_to_vnf14_1
   + f_8_9_s14_vnf14_0_to_vnf14_1 + f_8_11_s14_vnf14_0_to_vnf14_1 = 0
 flow_s14_vnf14_0_to_vnf14_1_n9: - v_vnf14_0_9 + v_vnf14_1_9
   - f_7_9_s14_vnf14_0_to_vnf14_1 - f_8_9_s14_vnf14_0_to_vnf14_1
   + f_9_10_s14_vnf14_0_to_vnf14_1 = 0
 flow_s14_vnf14_0_to_vnf14_1_n10: - v_vnf14_0_10 + v_vnf14_1_10
   - f_7_10_s14_vnf14_0_to_vnf14_1 - f_9_10_s14_vnf14_0_to_vnf14_1
   + f_10_11_s14_vnf14_0_to_vnf14_1 + f_10_12_s14_vnf14_0_to_vnf14_1 = 0
 flow_s14_vnf14_0_to_vnf14_1_n12: - v_vnf14_0_12 + v_vnf14_1_12
   - f_3_12_s14_vnf14_0_to_vnf14_1 - f_10_12_s14_vnf14_0_to_vnf14_1 = 0
 flow_s14_vnf14_1_to_vnf14_2_n11: - v_vnf14_1_11 + v_vnf14_2_11
   - f_3_11_s14_vnf14_1_to_vnf14_2 - f_8_11_s14_vnf14_1_to_vnf14_2
   - f_10_11_s14_vnf14_1_to_vnf14_2 = 0
 flow_entry_s0_n6: v_vnf0_0_6 - f_entry_2_6_s0 - f_entry_5_6_s0
   + f_entry_6_7_s0 = 1
 flow_entry_s1_n6: v_vnf1_0_6 - f_entry_2_6_s1 - f_entry_5_6_s1
   + f_entry_6_7_s1 = 1
 flow_entry_s2_n1: v_vnf2_0_1 + f_entry_1_2_s2 + f_entry_1_3_s2 = 0
 flow_entry_s2_n2: v_vnf2_0_2 - f_entry_1_2_s2 + f_entry_2_4_s2
   + f_entry_2_6_s2 = 0
 flow_entry_s2_n3: v_vnf2_0_3 - f_entry_1_3_s2 + f_entry_3_4_s2
   + f_entry_3_11_s2 + f_entry_3_12_s2 = 0
 flow_entry_s2_n4: v_vnf2_0_4 - f_entry_2_4_s2 - f_entry_3_4_s2
   + f_entry_4_5_s2 = 0
 flow_entry_s2_n5: v_vnf2_0_5 - f_entry_4_5_s2 + f_entry_5_6_s2
   + f_entry_5_8_s2 = 0
 flow_entry_s2_n7: v_vnf2_0_7 - f_entry_6_7_s2 + f_entry_7_8_s2
   + f_entry_7_9_s2 + f_entry_7_10_s2 = 0
 flow_entry_s2_n8: v_vnf2_0_8 - f_entry_5_8_s2 - f_entry_7_8_s2
   + f_entry_8_9_s2 + f_entry_8_11_s2 = 0
 flow_entry_s2_n9: v_vnf2_0_9 - f_entry_7_9_s2 - f_entry_8_9_s2
   + f_entry_9_10_s2 = 0
 flow_entry_s2_n10: v_vnf2_0_10 - f_entry_7_10_s2 - f_entry_9_10_s2
   + f_entry_10_11_s2 + f_entry_10_12_s2 = 0
 flow_entry_s2_n11: v_vnf2_0_11 - f_entry_3_11_s2 - f_entry_8_11_s2
   - f_entry_10_11_s2 = 0
 flow_entry_s2_n12: v_vnf2_0_12 - f_entry_3_12_s2 - f_entry_10_12_s2 = 0
 flow_entry_s3_n6: v_vnf3_0_6 - f_entry_2_6_s3 - f_entry_5_6_s3
   + f_entry_6_7_s3 = 1
 flow_entry_s4_n6: v_vnf4_0_6 - f_entry_2_6_s4 - f_entry_5_6_s4
   + f_entry_6_7_s4 = 1
 flow_entry_s5_n6: v_vnf5_0_6 - f_entry_2_6_s5 - f_entry_5_6_s5
   + f_entry_6_7_s5 = 1
 flow_entry_s6_n6: v_vnf6_0_6 - f_entry_2_6_s6 - f_entry_5_6_s6
   + f_entry_6_7_s6 = 1
 flow_entry_s7_n1: v_vnf7_0_1 + f_entry_1_2_s7 + f_entry_1_3_s7 = 0
 flow_entry_s7_n2: v_vnf7_0_2 - f_entry_1_2_s7 + f_entry_2_4_s7
   + f_entry_2_6_s7 = 0
 flow_entry_s7_n3: v_vnf7_0_3 - f_entry_1_3_s7 + f_entry_3_4_s7
   + f_entry_3_11_s7 + f_entry_3_12_s7 = 0
 flow_entry_s7_n4: v_vnf7_0_4 - f_entry_2_4_s7 - f_entry_3_4_s7
   + f_entry_4_5_s7 = 0
 flow_entry_s7_n5: v_vnf7_0_5 - f_entry_4_5_s7 + f_entry_5_6_s7
   + f_entry_5_8_s7 = 0
 flow_entry_s7_n7: v_vnf7_0_7 - f_entry_6_7_s7 + f_entry_7_8_s7
   + f_entry_7_9_s7 + f_entry_7_10_s7 = 0
 flow_entry_s7_n8: v_vnf7_0_8 - f_entry_5_8_s7 - f_entry_7_8_s7
   + f_entry_8_9_s7 + f_entry_8_11_s7 = 0
 flow_entry_s7_n9: v_vnf7_0_9 - f_entry_7_9_s7 - f_entry_8_9_s7
   + f_entry_9_10_s7 = 0
 flow_entry_s7_n10: v_vnf7_0_10 - f_entry_7_10_s7 - f_entry_9_10_s7
   + f_entry_10_11_s7 + f_entry_10_12_s7 = 0
 flow_entry_s7_n11: v_vnf7_0_11 - f_entry_3_11_s7 - f_entry_8_11_s7
   - f_entry_10_11_s7 = 0
 flow_entry_s9_n6: v_vnf9_0_6 - f_entry_2_6_s9 - f_entry_5_6_s9
   + f_entry_6_7_s9 = 1
 flow_entry_s10_n6: v_vnf10_0_6 - f_entry_2_6_s10 - f_entry_5_6_s10
   + f_entry_6_7_s10 = 1
 flow_entry_s12_n6: v_vnf12_0_6 - f_entry_2_6_s12 - f_entry_5_6_s12
   + f_entry_6_7_s12 = 1
 flow_entry_s14_n6: v_vnf14_0_6 - f_entry_2_6_s14 - f_entry_5_6_s14
   + f_entry_6_7_s14 = 1
 rho_def_(6,_7): 45 f_6_7_s0_vnf0_0_to_vnf0_1
   + 45 f_6_7_s0_vnf0_1_to_vnf0_2 + 45 f_6_7_s1_vnf1_0_to_vnf1_1
   + 45 f_6_7_s1_vnf1_1_to_vnf1_2 + 45 f_6_7_s2_vnf2_0_to_vnf2_1
   + 45 f_6_7_s2_vnf2_1_to_vnf2_2 + 45 f_6_7_s3_vnf3_0_to_vnf3_1
   + 45 f_6_7_s3_vnf3_1_to_vnf3_2 + 45 f_6_7_s4_vnf4_0_to_vnf4_1
   + 45 f_6_7_s4_vnf4_1_to_vnf4_2 + 45 f_6_7_s5_vnf5_0_to_vnf5_1
   + 45 f_6_7_s5_vnf5_1_to_vnf5_2 + 45 f_6_7_s6_vnf6_0_to_vnf6_1
   + 45 f_6_7_s6_vnf6_1_to_vnf6_2 + 45 f_6_7_s7_vnf7_0_to_vnf7_1
   + 45 f_6_7_s7_vnf7_1_to_vnf7_2 + 45 f_6_7_s8_vnf8_0_to_vnf8_1
   + 45 f_6_7_s8_vnf8_1_to_vnf8_2 + 45 f_6_7_s9_vnf9_0_to_vnf9_1
   + 45 f_6_7_s9_vnf9_1_to_vnf9_2 + 45 f_6_7_s10_vnf10_0_to_vnf10_1
   + 45 f_6_7_s10_vnf10_1_to_vnf10_2 + 45 f_6_7_s11_vnf11_0_to_vnf11_1
   + 45 f_6_7_s11_vnf11_1_to_vnf11_2 + 45 f_6_7_s12_vnf12_0_to_vnf12_1
   + 45 f_6_7_s12_vnf12_1_to_vnf12_2 + 45 f_6_7_s13_vnf13_0_to_vnf13_1
   + 45 f_6_7_s13_vnf13_1_to_vnf13_2 + 45 f_6_7_s14_vnf14_0_to_vnf14_1
   + 45 f_6_7_s14_vnf14_1_to_vnf14_2 + 45 f_entry_6_7_s0
   + 45 f_entry_6_7_s1 + 45 f_entry_6_7_s2 + 45 f_entry_6_7_s3
   + 45 f_entry_6_7_s4 + 45 f_entry_6_7_s5 + 45 f_entry_6_7_s6
   + 45 f_entry_6_7_s7 + 45 f_entry_6_7_s8 + 45 f_entry_6_7_s9
   + 45 f_entry_6_7_s10 + 45 f_entry_6_7_s11 + 45 f_entry_6_7_s12
   + 45 f_entry_6_7_s13 + 45 f_entry_6_7_s14 - 500 rho_6_7 <= 0
Bounds
 -infinity <= rho_6_7 <= 1
Binaries
 v_vnf0_0_6 v_vnf0_1_6 v_vnf0_2_6 v_vnf1_0_6 v_vnf1_1_6 v_vnf1_2_6
 v_vnf2_0_1 v_vnf2_0_2 v_vnf2_0_3 v_vnf2_0_4 v_vnf2_0_5 v_vnf2_0_6
 v_vnf2_0_7 v_vnf2_0_8 v_vnf2_0_9 v_vnf2_0_10 v_vnf2_0_11 v_vnf2_0_12
 v_vnf2_1_6 v_vnf2_2_6 v_vnf3_0_6 v_vnf3_1_6 v_vnf3_2_6 v_vnf4_0_6
 v_vnf4_1_6 v_vnf4_2_6 v_vnf5_0_6 v_vnf5_1_6 v_vnf5_2_6 v_vnf6_0_6
 v_vnf6_1_6 v_vnf6_2_6 v_vnf7_0_1 v_vnf7_0_2 v_vnf7_0_3 v_vnf7_0_4
 v_vnf7_0_5 v_vnf7_0_6 v_vnf7_0_7 v_vnf7_0_8 v_vnf7_0_9 v_vnf7_0_10
 v_vnf7_0_11 v_vnf7_0_12 v_vnf7_1_6 v_vnf7_1_12 v_vnf7_2_6 v_vnf7_2_12
 v_vnf9_0_6 v_vnf9_1_6 v_vnf9_2_6 v_vnf10_0_6 v_vnf10_1_6 v_vnf10_2_6
 v_vnf12_0_6 v_vnf12_1_6 v_vnf12_2_6 v_vnf14_0_1 v_vnf14_0_2 v_vnf14_0_3
 v_vnf14_0_4 v_vnf14_0_5 v_vnf14_0_6 v_vnf14_0_7 v_vnf14_0_8 v_vnf14_0_9
 v_vnf14_0_10 v_vnf14_0_11 v_vnf14_0_12 v_vnf14_1_1 v_vnf14_1_2 v_vnf14_1_3
 v_vnf14_1_4 v_vnf14_1_5 v_vnf14_1_6 v_vnf14_1_7 v_vnf14_1_8 v_vnf14_1_9
 v_vnf14_1_10 v_vnf14_1_11 v_vnf14_1_12 v_vnf14_2_6 v_vnf14_2_11
 f_2_6_s0_vnf0_0_to_vnf0_1 f_5_6_s0_vnf0_0_to_vnf0_1
 f_6_7_s0_vnf0_0_to_vnf0_1 f_6_7_s0_vnf0_1_to_vnf0_2
 f_2_6_s1_vnf1_0_to_vnf1_1 f_5_6_s1_vnf1_0_to_vnf1_1
 f_6_7_s1_vnf1_0_to_vnf1_1 f_6_7_s1_vnf1_1_to_vnf1_2
 f_2_6_s2_vnf2_0_to_vnf2_1 f_5_6_s2_vnf2_0_to_vnf2_1
 f_6_7_s2_vnf2_0_to_vnf2_1 f_6_7_s2_vnf2_1_to_vnf2_2
 f_2_6_s3_vnf3_0_to_vnf3_1 f_5_6_s3_vnf3_0_to_vnf3_1
 f_6_7_s3_vnf3_0_to_vnf3_1 f_6_7_s3_vnf3_1_to_vnf3_2
 f_2_6_s4_vnf4_0_to_vnf4_1 f_5_6_s4_vnf4_0_to_vnf4_1
 f_6_7_s4_vnf4_0_to_vnf4_1 f_6_7_s4_vnf4_1_to_vnf4_2
 f_2_6_s5_vnf5_0_to_vnf5_1 f_5_6_s5_vnf5_0_to_vnf5_1
 f_6_7_s5_vnf5_0_to_vnf5_1 f_6_7_s5_vnf5_1_to_vnf5_2
 f_2_6_s6_vnf6_0_to_vnf6_1 f_5_6_s6_vnf6_0_to_vnf6_1
 f_6_7_s6_vnf6_0_to_vnf6_1 f_6_7_s6_vnf6_1_to_vnf6_2
 f_2_6_s7_vnf7_0_to_vnf7_1 f_3_12_s7_vnf7_0_to_vnf7_1
 f_5_6_s7_vnf7_0_to_vnf7_1 f_6_7_s7_vnf7_0_to_vnf7_1
 f_10_12_s7_vnf7_0_to_vnf7_1 f_6_7_s7_vnf7_1_to_vnf7_2
 f_6_7_s8_vnf8_0_to_vnf8_1 f_6_7_s8_vnf8_1_to_vnf8_2
 f_2_6_s9_vnf9_0_to_vnf9_1 f_5_6_s9_vnf9_0_to_vnf9_1
 f_6_7_s9_vnf9_0_to_vnf9_1 f_6_7_s9_vnf9_1_to_vnf9_2
 f_2_6_s10_vnf10_0_to_vnf10_1 f_5_6_s10_vnf10_0_to_vnf10_1
 f_6_7_s10_vnf10_0_to_vnf10_1 f_6_7_s10_vnf10_1_to_vnf10_2
 f_6_7_s11_vnf11_0_to_vnf11_1 f_6_7_s11_vnf11_1_to_vnf11_2
 f_2_6_s12_vnf12_0_to_vnf12_1 f_5_6_s12_vnf12_0_to_vnf12_1
 f_6_7_s12_vnf12_0_to_vnf12_1 f_6_7_s12_vnf12_1_to_vnf12_2
 f_6_7_s13_vnf13_0_to_vnf13_1 f_6_7_s13_vnf13_1_to_vnf13_2
 f_1_2_s14_vnf14_0_to_vnf14_1 f_1_3_s14_vnf14_0_to_vnf14_1
 f_2_4_s14_vnf14_0_to_vnf14_1 f_2_6_s14_vnf14_0_to_vnf14_1
 f_3_4_s14_vnf14_0_to_vnf14_1 f_3_11_s14_vnf14_0_to_vnf14_1
 f_3_12_s14_vnf14_0_to_vnf14_1 f_4_5_s14_vnf14_0_to_vnf14_1
 f_5_6_s14_vnf14_0_to_vnf14_1 f_5_8_s14_vnf14_0_to_vnf14_1
 f_6_7_s14_vnf14_0_to_vnf14_1 f_7_8_s14_vnf14_0_to_vnf14_1
 f_7_9_s14_vnf14_0_to_vnf14_1 f_7_10_s14_vnf14_0_to_vnf14_1
 f_8_9_s14_vnf14_0_to_vnf14_1 f_8_11_s14_vnf14_0_to_vnf14_1
 f_9_10_s14_vnf14_0_to_vnf14_1 f_10_11_s14_vnf14_0_to_vnf14_1
 f_10_12_s14_vnf14_0_to_vnf14_1 f_3_11_s14_vnf14_1_to_vnf14_2
 f_6_7_s14_vnf14_1_to_vnf14_2 f_8_11_s14_vnf14_1_to_vnf14_2
 f_10_11_s14_vnf14_1_to_vnf14_2 f_entry_2_6_s0 f_entry_5_6_s0
 f_entry_6_7_s0 f_entry_2_6_s1 f_entry_5_6_s1 f_entry_6_7_s1 f_entry_1_2_s2
 f_entry_1_3_s2 f_entry_2_4_s2 f_entry_2_6_s2 f_entry_3_4_s2
 f_entry_3_11_s2 f_entry_3_12_s2 f_entry_4_5_s2 f_entry_5_6_s2
 f_entry_5_8_s2 f_entry_6_7_s2 f_entry_7_8_s2 f_entry_7_9_s2
 f_entry_7_10_s2 f_entry_8_9_s2 f_entry_8_11_s2 f_entry_9_10_s2
 f_entry_10_11_s2 f_entry_10_12_s2 f_entry_2_6_s3 f_entry_5_6_s3
 f_entry_6_7_s3 f_entry_2_6_s4 f_entry_5_6_s4 f_entry_6_7_s4 f_entry_2_6_s5
 f_entry_5_6_s5 f_entry_6_7_s5 f_entry_2_6_s6 f_entry_5_6_s6 f_entry_6_7_s6
 f_entry_1_2_s7 f_entry_1_3_s7 f_entry_2_4_s7 f_entry_2_6_s7 f_entry_3_4_s7
 f_entry_3_11_s7 f_entry_3_12_s7 f_entry_4_5_s7 f_entry_5_6_s7
 f_entry_5_8_s7 f_entry_6_7_s7 f_entry_7_8_s7 f_entry_7_9_s7
 f_entry_7_10_s7 f_entry_8_9_s7 f_entry_8_11_s7 f_entry_9_10_s7
 f_entry_10_11_s7 f_entry_10_12_s7 f_entry_6_7_s8 f_entry_2_6_s9
 f_entry_5_6_s9 f_entry_6_7_s9 f_entry_2_6_s10 f_entry_5_6_s10
 f_entry_6_7_s10 f_entry_6_7_s11 f_entry_2_6_s12 f_entry_5_6_s12
 f_entry_6_7_s12 f_entry_6_7_s13 f_entry_2_6_s14 f_entry_5_6_s14
 f_entry_6_7_s14
End
